<instance format="XCSP3" type="CSP">
  <variables>
    <var id="x0"> 6 8 13 </var>
    <var id="x1"> 0 3 5 6 </var>
    <var id="x2"> 0 6 11 </var>
    <var id="x3"> 0 8 14 </var>
    <var id="x4"> 0 5 6 </var>
    <var id="x5"> 0 3 6 </var>
    <var id="x6"> 3 8 13 14 </var>
    <var id="x7"> 0 8 13 </var>
    <var id="x8"> 4 6 13 </var>
    <var id="x9"> 4 6 13 </var>
    <var id="x10"> 0 1 3 4 6 12 </var>
    <var id="x11"> 0 4 6 </var>
    <var id="x12"> 3 6 13 </var>
    <var id="x13"> 0 12 </var>
    <var id="x14"> 0 4 13 </var>
    <var id="x15"> 0 5 14 16 17 </var>
    <var id="x16"> 2 14 17 </var>
    <var id="x17"> 1 14 16 </var>
    <var id="x18"> 0 4 14 16 </var>
    <var id="x19"> 0..2 5 16 </var>
    <var id="x20"> 0..2 </var>
    <var id="x21"> 0 16 17 </var>
    <var id="x22"> 0 2 5 14 16 </var>
    <var id="x23"> 2 6 8 11 13 </var>
    <var id="x24"> 8 13 16 </var>
    <var id="x25"> 2 3 9 11 13 </var>
    <var id="x26"> 6 8 9 13 </var>
    <var id="x27"> 3 6 </var>
    <var id="x28"> 3 11 16 </var>
    <var id="x29"> 2 6 9 16 </var>
    <var id="x30"> 2 8 16 </var>
    <var id="x31"> 0 5 8 14..16 </var>
    <var id="x32"> 8 16 </var>
    <var id="x33"> 0 5 10 </var>
    <var id="x34"> 0 8 9 14 15 </var>
    <var id="x35"> 0 14..16 </var>
    <var id="x36"> 0 5 9 16 </var>
    <var id="x37"> 0 8..10 15 </var>
    <var as="x31" id="x38"/>
    <var id="x39"> 2 13 14 </var>
    <var id="x40"> 2 3 13 14 17 </var>
    <var id="x41"> 12 13 15 </var>
    <var id="x42"> 2 13 17 </var>
    <var id="x43"> 0 </var>
    <var id="x44"> 2 3 13 </var>
    <var id="x45"> 0 2 3 15 </var>
    <var id="x46"> 3 13..15 </var>
    <var id="x47"> 2 </var>
    <var id="x48"> 0 17 </var>
    <var id="x49"> 0 1 10 </var>
    <var id="x50"> 0 7 9 </var>
    <var id="x51"> 0..2 9 </var>
    <var id="x52"> 1 2 10 </var>
    <var id="x53"> 9 </var>
    <var id="x54"> 6 8 14 </var>
    <var id="x55"> 6 8..10 12 </var>
    <var id="x56"> 0 6 10 12 </var>
    <var id="x57"> 0 6 9 16 </var>
    <var id="x58"> 0 8 9 12 14 </var>
    <var id="x59"> 0 8..10 </var>
    <var id="x60"> 6 8 9 16 </var>
    <var id="x61"> 0 8..10 16 </var>
    <var id="x62"> 2 7 9 </var>
    <var id="x63"> 0 7 9 15 </var>
    <var id="x64"> 0 4 7 15 </var>
    <var id="x65"> 0 2 9 10 15 </var>
    <var id="x66"> 0 6 7 10 </var>
    <var id="x67"> 6 9 15 </var>
    <var id="x68"> 0 2 15 </var>
    <var id="x69"> 0 4 7 9 10 </var>
    <var id="x70"> 4 6 11 13 </var>
    <var id="x71"> 3 4 6 10 </var>
    <var id="x72"> 4 6 9 11 16 </var>
    <var id="x73"> 9 13 16 </var>
    <var id="x74"> 3 4 11 16 </var>
    <var id="x75"> 3 10 11 13 16 </var>
    <var id="x76"> 16 </var>
    <var id="x77"> 3 4 10 13 </var>
    <var id="x78"> 8 13 16 </var>
    <var id="x79"> 3 7 13 </var>
    <var id="x80"> 4 6 8 13 </var>
    <var id="x81"> 1 7 8 13 16 </var>
    <var id="x82"> 1 7 8 </var>
    <var id="x83"> 3 4 7 16 </var>
    <var id="x84"> 1 6 16 </var>
    <var id="x85"> 4 7 8 13 16 </var>
    <var id="x86"> 2 8 </var>
    <var id="x87"> 0 8 15 16 </var>
    <var id="x88"> 2 7 </var>
    <var id="x89"> 8 10 15 </var>
    <var id="x90"> 2 7 8 16 </var>
    <var id="x91"> 1 7 8 16 </var>
    <var id="x92"> 0 1 7 8 15 </var>
    <var id="x93"> 1 8 10 15 </var>
    <var id="x94"> 9 13 14 </var>
    <var id="x95"> 8 9 12 13 15 </var>
    <var id="x96"> 8 9 13 14 16 </var>
    <var id="x97"> 8 9 12 14 15 </var>
    <var id="x98"> 14..16 </var>
    <var id="x99"> 5 13 16 </var>
    <var id="x100"> 5 8 12 14..16 </var>
    <var id="x101"> 8 13..15 </var>
    <var id="x102"> 2 4 7 13 16 </var>
    <var id="x103"> 1 3 4 </var>
    <var id="x104"> 1 7 9 13 16 </var>
    <var id="x105"> 1..3 13 16 </var>
    <var id="x106"> 3 7 16 </var>
    <var id="x107"> 3 9 13 16 </var>
    <var id="x108"> 1 3 4 13 </var>
    <var id="x109"> 4 7 9 13 16 </var>
    <var id="x110"> 8 15 </var>
    <var id="x111"> 4 7 8 </var>
    <var id="x112"> 9 12 </var>
    <var id="x113"> 3 11 </var>
    <var id="x114"> 3 8 9 15 </var>
    <var id="x115"> 3 7 12 </var>
    <var id="x116"> 3 8 9 15 </var>
    <var id="x117"> 3 4 8 15 </var>
    <var id="x118"> 8 10 12 15 </var>
    <var id="x119"> 7 14 15 </var>
    <var id="x120"> 1 12 </var>
    <var id="x121"> 1 8 10 15 </var>
    <var id="x122"> 7 10 12 17 </var>
    <var id="x123"> 8 15 </var>
    <var id="x124"> 8 12 14 15 </var>
    <var id="x125"> 7 8 10 </var>
    <var id="x126"> 7 11 13 </var>
    <var id="x127"> 6..8 13 16 </var>
    <var id="x128"> 7 8 13 16 </var>
    <var id="x129"> 7 8 15 </var>
    <var id="x130"> 5 11 13 16 </var>
    <var id="x131"> 8 15 </var>
    <var id="x132"> 6 7 16 </var>
    <var id="x133"> 7 8 13 16 </var>
    <var id="x134"> 0 5 8 13 14 16 </var>
    <var id="x135"> 4 8 13 16 </var>
    <var id="x136"> 0 4 16 </var>
    <var id="x137"> 5 13 16 </var>
    <var id="x138"> 0 16 </var>
    <var id="x139"> 5 8 13 16 </var>
    <var id="x140"> 4 8 13 14 </var>
  </variables>
  <constraints>
    <group>
      <allDifferent> %... </allDifferent>
      <args> x0 x1 x2 x3 x4 x5 x6 x7 </args>
      <args> x8 x9 x10 x11 x12 x13 x14 </args>
      <args> x15 x16 x17 x18 x19 x20 x21 x22 </args>
      <args> x23 x24 x25 x26 x27 x28 x29 x30 </args>
      <args> x31 x32 x33 x34 x35 x36 x37 x38 </args>
      <args> x39 x40 x41 x42 x43 x44 x45 x46 </args>
      <args> x47 x48 x49 x50 x51 x52 x53 </args>
      <args> x54 x55 x56 x57 x58 x59 x60 x61 </args>
      <args> x62 x63 x64 x65 x66 x67 x68 x69 </args>
      <args> x70 x71 x72 x73 x74 x75 x76 x77 </args>
      <args> x78 x79 x80 x81 x82 x83 x84 x85 </args>
      <args> x86 x87 x88 x89 x90 x91 x92 x93 </args>
      <args> x94 x95 x96 x97 x98 x99 x100 x101 </args>
      <args> x102 x103 x104 x105 x106 x107 x108 x109 </args>
      <args> x110 x111 x112 x113 x114 x115 x116 x117 </args>
      <args> x118 x119 x120 x121 x122 x123 x124 x125 </args>
      <args> x126 x127 x128 x129 x130 x131 x132 x133 </args>
      <args> x134 x135 x136 x137 x138 x139 x140 </args>
      <args> x8 x23 x39 x47 x54 x70 x86 </args>
      <args> x15 x24 x31 x48 x78 x87 x110 x134 </args>
      <args> x16 x25 x40 x62 x79 x88 x94 x126 </args>
      <args> x0 x26 x41 x55 x80 x89 x95 x118 </args>
      <args> x9 x32 x42 x90 x102 x111 x127 x135 </args>
      <args> x1 x10 x27 x33 x49 x56 x71 x103 </args>
      <args> x2 x11 x43 x50 x57 x72 x136 </args>
      <args> x17 x73 x81 x91 x96 x104 x128 </args>
      <args> x3 x34 x58 x63 x82 x92 x97 x129 </args>
      <args> x18 x28 x35 x64 x74 x83 x98 x119 </args>
      <args> x4 x19 x29 x36 x51 x84 x112 x120 </args>
      <args> x44 x52 x75 x99 x105 x113 x130 x137 </args>
      <args> x20 x37 x45 x59 x65 x114 x121 x131 </args>
      <args> x5 x21 x66 x106 x115 x122 x132 x138 </args>
      <args> x12 x53 x60 x67 x107 x116 x123 x139 </args>
      <args> x13 x22 x30 x38 x68 x76 x100 x124 </args>
      <args> x6 x46 x77 x93 x101 x108 x117 x140 </args>
      <args> x7 x14 x61 x69 x85 x109 x125 x133 </args>
    </group>
  </constraints>
</instance>

